Problem:    
Rows:       256
Columns:    89 (72 integer, 72 binary)
Non-zeros:  960
Status:     INTEGER OPTIMAL
Objective:  value = 210.864929 (MINimum)

   No.   Row name        Activity     Lower bound   Upper bound
------ ------------    ------------- ------------- -------------
     1 r.5                   210.865             0               
     2 r.6                   140.431      -958.949               
     3 r.7                   1210.86             0               
     4 r.8                  -859.569      -959.375               
     5 r.9                   210.865             0               
     6 r.10                  119.511      -953.624               
     7 r.11                  1210.86             0               
     8 r.12                 -902.879      -956.181               
     9 r.13                  1210.86             0               
    10 r.14                   -883.5      -931.285               
    11 r.15                  210.865             0               
    12 r.16                    116.5      -931.073               
    13 r.17                  1210.86             0               
    14 r.18                 -952.215      -963.471               
    15 r.19                  210.865             0               
    16 r.20                  47.7854      -960.748               
    17 r.21                  210.865             0               
    18 r.22                  119.511       -966.62               
    19 r.23                  1210.86             0               
    20 r.24                 -949.382      -965.274               
    21 r.25                  1210.86             0               
    22 r.26                 -997.776      -997.776               
    23 r.27                  210.865             0               
    24 r.28                  19.3101      -966.949               
    25 r.29                  210.865             0               
    26 r.30                  210.865      -906.296               
    27 r.31                  1210.86             0               
    28 r.32                 -789.135      -929.566               
    29 r.33                  1210.86             0               
    30 r.34                 -789.135      -905.635               
    31 r.35                  210.865             0               
    32 r.36                  210.865      -929.632               
    33 r.37                        1             1             = 
    34 r.38                        1             1             = 
    35 r.39                        1             1             = 
    36 r.40                        1             1             = 
    37 r.41                        1             1             = 
    38 r.42                        1             1             = 
    39 r.43                        1             1             = 
    40 r.44                        1             1             = 
    41 r.45                     1000             2               
    42 r.46                    -1000         -1001               
    43 r.47                  1979.08      -953.624               
    44 r.48                        2             2               
    45 r.49                       -2         -1001               
    46 r.50                 -43.3097      -956.181               
    47 r.51                     1001             2               
    48 r.52                    -1001         -1001               
    49 r.53                  1976.07      -931.285               
    50 r.54                     1001             2               
    51 r.55                    -1001         -1001               
    52 r.56                  1976.07      -931.073               
    53 r.57                     1001             2               
    54 r.58                    -1001         -1001               
    55 r.59                  1907.35      -963.471               
    56 r.60                     1001             2               
    57 r.61                    -1001         -1001               
    58 r.62                  1907.35      -960.748               
    59 r.63                     1000             2               
    60 r.64                    -1000         -1001               
    61 r.65                  1979.08       -966.62               
    62 r.66                        2             2               
    63 r.67                       -2         -1001               
    64 r.68                 -89.8132      -965.274               
    65 r.69                  129.175      -958.949               
    66 r.70                 -870.825      -959.375               
    67 r.71                  129.175      -958.949               
    68 r.72                 -870.825      -959.375               
    69 r.73                   70.434      -906.296               
    70 r.74                 -929.566      -929.566               
    71 r.75                   70.434      -906.296               
    72 r.76                 -929.566      -929.566               
    73 r.77                     1001             2               
    74 r.78                    -1001         -1001               
    75 r.79                  2070.43      -905.635               
    76 r.80                     1001             2               
    77 r.81                    -1001         -1001               
    78 r.82                  2070.43      -929.632               
    79 r.83                     1000             2               
    80 r.84                    -1000         -1001               
    81 r.85                  2023.93       41.0511               
    82 r.86                        2             2               
    83 r.87                       -2         -1001               
    84 r.88                  40.6249       40.6249               
    85 r.89                     1001             2               
    86 r.90                    -1001         -1001               
    87 r.91                     2000      -931.285               
    88 r.92                     1001             2               
    89 r.93                    -1001         -1001               
    90 r.94                  2016.69      -931.073               
    91 r.95                     1001             2               
    92 r.96                    -1001         -1001               
    93 r.97                  1931.29      -963.471               
    94 r.98                     1001             2               
    95 r.99                    -1001         -1001               
    96 r.100                 1947.98      -960.748               
    97 r.101                    1000             2               
    98 r.102                   -1000         -1001               
    99 r.103                 2003.01       -966.62               
   100 r.104                       2             2               
   101 r.105                      -2         -1001               
   102 r.106                -49.1883      -965.274               
   103 r.107                 108.255      -953.624               
   104 r.108                -914.135      -956.181               
   105 r.109                 108.255      -953.624               
   106 r.110                -914.135      -956.181               
   107 r.111                    1000             2               
   108 r.112                   -1000         -1001               
   109 r.113                 2094.36      -906.296               
   110 r.114                       2             2               
   111 r.115                      -2         -1001               
   112 r.116                -888.941      -929.566               
   113 r.117                -905.635      -905.635               
   114 r.118                 94.3646      -929.632               
   115 r.119                -888.941      -905.635               
   116 r.120                 111.059      -929.632               
   117 r.121                    1001             2               
   118 r.122                   -1001         -1001               
   119 r.123                 2023.93       41.0511               
   120 r.124                    1001             2               
   121 r.125                   -1001         -1001               
   122 r.126                 2023.93       40.6249               
   123 r.127                    1001             2               
   124 r.128                   -1001         -1001               
   125 r.129                 2003.01       46.3757               
   126 r.130                    1001             2               
   127 r.131                   -1001         -1001               
   128 r.132                 1980.62       43.8188               
   129 r.133                -931.285      -931.285               
   130 r.134                  68.715      -931.073               
   131 r.135                -931.285      -931.285               
   132 r.136                  68.715      -931.073               
   133 r.137                    1001             2               
   134 r.138                   -1001         -1001               
   135 r.139                 2003.01       -966.62               
   136 r.140                    1001             2               
   137 r.141                   -1001         -1001               
   138 r.142                 1934.12      -965.274               
   139 r.143                -894.756      -931.285               
   140 r.144                 105.244      -931.073               
   141 r.145                -894.756      -931.285               
   142 r.146                 105.244      -931.073               
   143 r.147                    1001             2               
   144 r.148                   -1001         -1001               
   145 r.149                 2094.36      -906.296               
   146 r.150                    1001             2               
   147 r.151                   -1001         -1001               
   148 r.152                 2094.36      -929.566               
   149 r.153                -905.635      -905.635               
   150 r.154                 94.3646      -929.632               
   151 r.155                -905.635      -905.635               
   152 r.156                 94.3646      -929.632               
   153 r.157                    1001             2               
   154 r.158                   -1001         -1001               
   155 r.159                 2092.65       41.0511               
   156 r.160                    1001             2               
   157 r.161                   -1001         -1001               
   158 r.162                 2092.65       40.6249               
   159 r.163                    1001             2               
   160 r.164                   -1001         -1001               
   161 r.165                 2071.73       46.3757               
   162 r.166                    1001             2               
   163 r.167                   -1001         -1001               
   164 r.168                 2049.34       43.8188               
   165 r.169                    1001             2               
   166 r.170                   -1001         -1001               
   167 r.171                 2071.73       -966.62               
   168 r.172                    1001             2               
   169 r.173                   -1001         -1001               
   170 r.174                 2002.83      -965.274               
   171 r.175                -963.471      -963.471               
   172 r.176                 36.5295      -960.748               
   173 r.177                -963.471      -963.471               
   174 r.178                 36.5295      -960.748               
   175 r.179                    1001             2               
   176 r.180                   -1001         -1001               
   177 r.181                 2163.08      -906.296               
   178 r.182                    1001             2               
   179 r.183                   -1001         -1001               
   180 r.184                 2163.08      -929.566               
   181 r.185                 -836.92      -905.635               
   182 r.186                  163.08      -929.632               
   183 r.187                 -836.92      -905.635               
   184 r.188                  163.08      -929.632               
   185 r.189                    1000             2               
   186 r.190                   -1000         -1001               
   187 r.191                 2023.93       41.0511               
   188 r.192                       2             2               
   189 r.193                      -2         -1001               
   190 r.194                 87.1285       40.6249               
   191 r.195                    1000             2               
   192 r.196                   -1000         -1001               
   193 r.197                 2003.01       46.3757               
   194 r.198                       2             2               
   195 r.199                      -2         -1001               
   196 r.200                 43.8188       43.8188               
   197 r.201                    1001             2               
   198 r.202                   -1001         -1001               
   199 r.203                    2000        68.715               
   200 r.204                    1001             2               
   201 r.205                   -1001         -1001               
   202 r.206                  2063.2       68.9273               
   203 r.207                    1001             2               
   204 r.208                   -1001         -1001               
   205 r.209                 1931.29       36.5295               
   206 r.210                    1001             2               
   207 r.211                   -1001         -1001               
   208 r.212                 1994.48       39.2521               
   209 r.213                 108.255       -966.62               
   210 r.214                -960.638      -965.274               
   211 r.215                 108.255       -966.62               
   212 r.216                -960.638      -965.274               
   213 r.217                 94.3646      -906.296               
   214 r.218                -905.635      -929.566               
   215 r.219                 157.562      -906.296               
   216 r.220                -842.438      -929.566               
   217 r.221                -905.635      -905.635               
   218 r.222                 94.3646      -929.632               
   219 r.223                -842.438      -905.635               
   220 r.224                 157.562      -929.632               
   221 r.225                    1000             2               
   222 r.226                   -1000         -1001               
   223 r.227                 1908.65       46.3757               
   224 r.228                       2             2               
   225 r.229                      -2         -1001               
   226 r.230                 886.256       43.8188               
   227 r.231                    1001             2               
   228 r.232                   -1001         -1001               
   229 r.233                 1905.64        68.715               
   230 r.234                    1001             2               
   231 r.235                   -1001         -1001               
   232 r.236                 1905.64       68.9273               
   233 r.237                    1001             2               
   234 r.238                   -1001         -1001               
   235 r.239                 1836.92       36.5295               
   236 r.240                    1001             2               
   237 r.241                   -1001         -1001               
   238 r.242                 1836.92       39.2521               
   239 r.243                    1001             2               
   240 r.244                   -1001         -1001               
   241 r.245                    2000      -905.635               
   242 r.246                    1001             2               
   243 r.247                   -1001         -1001               
   244 r.248                    2000      -929.632               
   245 r.249                    1001             2               
   246 r.250                   -1001         -1001               
   247 r.251                 1929.57       41.0511               
   248 r.252                    1001             2               
   249 r.253                   -1001         -1001               
   250 r.254                 1929.57       40.6249               
   251 r.255                    1001             2               
   252 r.256                   -1001         -1001               
   253 r.257                    2000        93.704               
   254 r.258                    1001             2               
   255 r.259                   -1001         -1001               
   256 r.260                    2000        70.434               

   No. Column name       Activity     Lower bound   Upper bound
------ ------------    ------------- ------------- -------------
     1 tt                    210.865             0               
     2 s_1_1        *              0             0             1 
     3 t_1_1                  70.434             0               
     4 s_1_7        *              0             0             1 
     5 s_2_1        *              1             0             1 
     6 t_2_1                  70.434             0               
     7 s_2_7        *              1             0             1 
     8 s_1_2        *              0             0             1 
     9 t_1_2                 94.3646             0               
    10 s_1_8        *              1             0             1 
    11 s_2_2        *              1             0             1 
    12 t_2_2                 111.059             0               
    13 s_2_8        *              0             0             1 
    14 s_1_3        *              1             0             1 
    15 t_1_3                 94.3646             0               
    16 s_2_3        *              0             0             1 
    17 t_2_3                 94.3646             0               
    18 s_1_4        *              1             0             1 
    19 t_1_4                  163.08             0               
    20 s_2_4        *              0             0             1 
    21 t_2_4                  163.08             0               
    22 s_1_5        *              0             0             1 
    23 t_1_5                 94.3646             0               
    24 s_2_5        *              1             0             1 
    25 t_2_5                 157.562             0               
    26 s_1_6        *              1             0             1 
    27 t_1_6                 199.609             0               
    28 s_2_6        *              0             0             1 
    29 t_2_6                 199.609             0               
    30 t_1_7                       0             0               
    31 t_2_7                       0             0               
    32 t_1_8                       0             0               
    33 t_2_8                       0             0               
    34 r_1_1_2      *              1             0             1 
    35 u_1_1_2      *              0             0             1 
    36 r_2_1_2      *              0             0             1 
    37 u_2_1_2      *              0             0             1 
    38 r_1_1_3      *              1             0             1 
    39 u_1_1_3      *              0             0             1 
    40 r_2_1_3      *              1             0             1 
    41 u_2_1_3      *              0             0             1 
    42 r_1_1_4      *              1             0             1 
    43 u_1_1_4      *              0             0             1 
    44 r_2_1_4      *              1             0             1 
    45 u_2_1_4      *              0             0             1 
    46 r_1_1_5      *              1             0             1 
    47 u_1_1_5      *              0             0             1 
    48 r_2_1_5      *              0             0             1 
    49 u_2_1_5      *              0             0             1 
    50 r_1_1_8      *              1             0             1 
    51 u_1_1_8      *              0             0             1 
    52 r_2_1_8      *              1             0             1 
    53 u_2_1_8      *              0             0             1 
    54 r_1_2_3      *              1             0             1 
    55 u_1_2_3      *              0             0             1 
    56 r_2_2_3      *              1             0             1 
    57 u_2_2_3      *              0             0             1 
    58 r_1_2_4      *              1             0             1 
    59 u_1_2_4      *              0             0             1 
    60 r_2_2_4      *              1             0             1 
    61 u_2_2_4      *              0             0             1 
    62 r_1_2_5      *              1             0             1 
    63 u_1_2_5      *              0             0             1 
    64 r_2_2_5      *              0             0             1 
    65 u_2_2_5      *              0             0             1 
    66 r_1_2_7      *              1             0             1 
    67 u_1_2_7      *              0             0             1 
    68 r_2_2_7      *              0             0             1 
    69 u_2_2_7      *              1             0             1 
    70 r_1_3_5      *              1             0             1 
    71 u_1_3_5      *              0             0             1 
    72 r_2_3_5      *              1             0             1 
    73 u_2_3_5      *              0             0             1 
    74 r_1_3_7      *              1             0             1 
    75 u_1_3_7      *              0             0             1 
    76 r_2_3_7      *              1             0             1 
    77 u_2_3_7      *              0             0             1 
    78 r_1_4_5      *              1             0             1 
    79 u_1_4_5      *              0             0             1 
    80 r_2_4_5      *              1             0             1 
    81 u_2_4_5      *              0             0             1 
    82 r_1_4_7      *              1             0             1 
    83 u_1_4_7      *              0             0             1 
    84 r_2_4_7      *              1             0             1 
    85 u_2_4_7      *              0             0             1 
    86 r_1_7_8      *              1             0             1 
    87 u_1_7_8      *              0             0             1 
    88 r_2_7_8      *              1             0             1 
    89 u_2_7_8      *              0             0             1 

Integer feasibility conditions:

KKT.PE: max.abs.err = 4.55e-13 on row 58
        max.rel.err = 1.10e-16 on row 58
        High quality

KKT.PB: max.abs.err = 0.00e+00 on row 0
        max.rel.err = 0.00e+00 on row 0
        High quality

End of output
